c description: Random 3-CNF over 10 variables and 30 clauses
p cnf 10 30
-4 -6 -8 0
-1 -5 -9 0
1 9 -10 0
6 -7 10 0
-5 -6 -7 0
3 -6 -10 0
3 -6 8 0
-1 -5 8 0
3 -9 10 0
-4 -5 10 0
1 -4 6 0
-3 -4 10 0
-3 4 10 0
-1 -3 -10 0
-4 -5 9 0
-4 -6 -10 0
1 -2 9 0
2 -5 -6 0
1 -8 9 0
1 3 -10 0
-2 -5 -6 0
-1 3 -6 0
-5 6 -10 0
-1 3 -9 0
2 -6 10 0
1 -6 -9 0
-4 5 7 0
3 6 7 0
2 -6 7 0
-6 9 -10 0